(declare-fun M () Int)
(declare-fun N () Int)
(declare-fun j () Int)
(declare-fun k () Int)

(assert (and
  (forall ((i_sub_1 Int))
    (or
      (not (<= 0 i_sub_1))
      (not (= j (+ j 1)))
      (not (<= i_sub_1 (+ M (- 1))))
    )
  )
  (forall ((i_dot_1 Int))
    (or
      (not (<= i_dot_1 (+ M (- 1))))
      (not (= j (+ j 1)))
      (not (<= 0 i_dot_1))
    )
  )
  (forall ((i_dot_0 Int) (i_sub_1 Int))
    (or
      (not (= j (+ j 1)))
      (not (<= 0 i_sub_1))
      (not (<= 0 i_dot_0))
      (not (= i_dot_0 i_sub_1))
      (not (<= i_sub_1 (+ M (- 1))))
      (not (<= i_dot_0 (+ M (- 1))))
    )
  )
  (forall ((i_dot_0 Int) (i_dot_1 Int))
    (or
      (not (= j (+ j 1)))
      (not (<= 0 i_dot_1))
      (not (<= i_dot_1 (+ M (- 1))))
      (not (<= 0 i_dot_0))
      (not (<= i_dot_0 (+ M (- 1))))
    )
  )
  (not (= j (+ j 1)))
  (forall ((i_dot_0 Int))
    (or
      (not (<= 0 i_dot_0))
      (not (<= i_dot_0 (+ M (- 1))))
      (not (= j (+ j 1)))
    )
  )
  (forall ((i_sub_0 Int))
    (or
      (not (= j (+ j 1)))
      (not (<= 0 i_sub_0))
      (not (<= i_sub_0 (+ M (- 1))))
    )
  )
  (forall ((i_sub_0 Int) (i_sub_1 Int))
    (or
      (not (= i_sub_0 i_sub_1))
      (not (= j (+ j 1)))
      (not (<= 0 i_sub_1))
      (not (<= i_sub_1 (+ M (- 1))))
      (not (<= i_sub_0 (+ M (- 1))))
      (not (<= 0 i_sub_0))
    )
  )
  (and
    (<= 1 (+ M (- 1)))
    (<= (+ k 2) (+ N (- 1)))
    (<= 1 (+ N (- 1)))
    (<= (+ j 1) (+ N (- 1)))
    (<= (+ k 1) j)
  )
  (forall ((i_dot_1 Int) (i_sub_0 Int))
    (or
      (not (= j (+ j 1)))
      (not (<= 0 i_dot_1))
      (not (<= i_dot_1 (+ M (- 1))))
      (not (<= i_sub_0 (+ M (- 1))))
      (not (<= 0 i_sub_0))
      (not (= i_sub_0 i_dot_1))
    )
  )
))

(check-sat)